10J3M/DAT/10J3MUNR-2.dat
10 3
16.8426 32.1625
30.8343 5.4242
4.2232 35.0074
3.0226 29.6658
12.1326 42.1529
30.5945 43.2424
21.9838 33.3339
48.4224 2.3207
13.817 40.0604
38.6294 44.4675
307.8377