10J3M/SOL/10J3MUNR-2.sol
solution status: optimal solution found
objective value:                              73.5008
x#1#1                                               1 	(obj:0)
x#2#2                                               1 	(obj:0)
x#3#1                                               1 	(obj:0)
x#4#1                                               1 	(obj:0)
x#5#1                                               1 	(obj:0)
x#6#1                              0.0483420222589027 	(obj:0)
x#6#2                               0.951657977741097 	(obj:0)
x#7#1                                               1 	(obj:0)
x#8#3                                               1 	(obj:0)
x#9#1                                               1 	(obj:0)
x#10#2                              0.350794990344142 	(obj:0)
x#10#3                              0.649205009655858 	(obj:0)
z                                             73.5008 	(obj:1)
